
Gurobi 9.1.1 (win64) logging started Sun Mar 13 19:40:13 2022

Changed value of parameter LogFile to ./Log/Pattern_Appro_solver_900_order_90_batch.log
   Prev:   Default: 
Gurobi Optimizer version 9.1.1 build v9.1.1rc0 (win64)
Thread count: 6 physical cores, 12 logical processors, using up to 12 threads
Optimize a model with 4780 rows, 37620 columns and 153900 nonzeros
Model fingerprint: 0x7cf0613c
Variable types: 0 continuous, 37620 integer (31500 binary)
Coefficient statistics:
  Matrix range     [1e+00, 1e+01]
  Objective range  [1e+00, 4e+01]
  Bounds range     [1e+00, 4e+01]
  RHS range        [1e+00, 4e+01]
Found heuristic solution: objective 11767.000000
Presolve removed 382 rows and 4256 columns
Presolve time: 0.18s
Presolved: 4398 rows, 33364 columns, 132703 nonzeros
Variable types: 0 continuous, 33364 integer (27647 binary)

Root relaxation: objective 2.864611e+03, 20100 iterations, 0.66 seconds

    Nodes    |    Current Node    |     Objective Bounds      |     Work
 Expl Unexpl |  Obj  Depth IntInf | Incumbent    BestBd   Gap | It/Node Time

     0     0 2864.61111    0  403 11767.0000 2864.61111  75.7%     -    1s
H    0     0                    6673.0000000 2864.61111  57.1%     -    1s
H    0     0                    6588.0000000 2864.61111  56.5%     -    1s
H    0     0                    6529.0000000 2864.61111  56.1%     -    1s
     0     0 2924.59219    0  628 6529.00000 2924.59219  55.2%     -    2s
H    0     0                    5857.0000000 2924.59219  50.1%     -    2s
     0     0 2926.24955    0  650 5857.00000 2926.24955  50.0%     -    2s
     0     0 2926.25156    0  657 5857.00000 2926.25156  50.0%     -    2s
     0     0 2994.38356    0  903 5857.00000 2994.38356  48.9%     -    3s
     0     0 3002.03547    0  884 5857.00000 3002.03547  48.7%     -    4s
     0     0 3005.15032    0  893 5857.00000 3005.15032  48.7%     -    4s
     0     0 3006.24955    0  907 5857.00000 3006.24955  48.7%     -    4s
     0     0 3006.24966    0  910 5857.00000 3006.24966  48.7%     -    4s
     0     0 3051.49123    0 1037 5857.00000 3051.49123  47.9%     -    5s
H    0     0                    5737.0000000 3051.49123  46.8%     -    6s
     0     0 3061.66707    0 1081 5737.00000 3061.66707  46.6%     -    6s
     0     0 3064.79801    0 1158 5737.00000 3064.79801  46.6%     -    7s
     0     0 3065.46784    0 1117 5737.00000 3065.46784  46.6%     -    7s
     0     0 3065.59720    0 1132 5737.00000 3065.59720  46.6%     -    7s
     0     0 3065.60799    0 1141 5737.00000 3065.60799  46.6%     -    7s
     0     0 3095.97086    0 1352 5737.00000 3095.97086  46.0%     -   10s
H    0     0                    5694.0000000 3095.97086  45.6%     -   14s
H    0     0                    5627.9999911 3095.97086  45.0%     -   16s
H    0     0                    5521.0000000 3095.97086  43.9%     -   16s
     0     0 3100.87884    0 1378 5521.00000 3100.87884  43.8%     -   16s
     0     0 3101.85344    0 1405 5521.00000 3101.85344  43.8%     -   17s
     0     0 3103.34927    0 1487 5521.00000 3103.34927  43.8%     -   18s
     0     0 3104.30913    0 1489 5521.00000 3104.30913  43.8%     -   19s
     0     0 3104.37441    0 1452 5521.00000 3104.37441  43.8%     -   19s
     0     0 3123.69056    0 1670 5521.00000 3123.69056  43.4%     -   23s
H    0     0                    5486.0000000 3123.69056  43.1%     -   24s
     0     0 3127.82120    0 1636 5486.00000 3127.82120  43.0%     -   26s
     0     0 3129.00369    0 1690 5486.00000 3129.00369  43.0%     -   28s
     0     0 3129.94453    0 1674 5486.00000 3129.94453  42.9%     -   29s
     0     0 3130.32978    0 1813 5486.00000 3130.32978  42.9%     -   31s
     0     0 3130.46486    0 1704 5486.00000 3130.46486  42.9%     -   31s
H    0     0                    5417.0000000 3130.46486  42.2%     -   40s
H    0     0                    5409.0000000 3130.46486  42.1%     -   40s
H    0     0                    5407.0000000 3130.46486  42.1%     -   41s
     0     0 3158.01690    0 1998 5407.00000 3158.01690  41.6%     -   41s
H    0     0                    5358.0000000 3158.01690  41.1%     -   46s
     0     0 3163.32593    0 1980 5358.00000 3163.32593  41.0%     -   46s
     0     0 3164.42303    0 2064 5358.00000 3164.42303  40.9%     -   49s
H    0     0                    5333.0000000 3164.42303  40.7%     -   52s
     0     0 3165.51690    0 2036 5333.00000 3165.51690  40.6%     -   52s
     0     0 3165.62120    0 2055 5333.00000 3165.62120  40.6%     -   54s
     0     0          -    0      5333.00000 3165.62120  40.6%     -   60s

Cutting planes:
  Gomory: 69
  Cover: 2536
  Implied bound: 186
  Clique: 438
  MIR: 81
  StrongCG: 6
  Flow cover: 188
  Zero half: 130
  Relax-and-lift: 9

Explored 1 nodes (80360 simplex iterations) in 60.03 seconds
Thread count was 12 (of 12 available processors)

Solution count 10: 5333 5358 5407 ... 5737

Time limit reached
Best objective 5.333000000000e+03, best bound 3.166000000000e+03, gap 40.6338%
